data/lp_files/q3/35_5.lp
\ Model foo
\ LP format - for model browsing. Use MPS format to capture full model detail.
Minimize
  z
Subject To
 allocateEach[1]: x[1,1] + x[2,1] = 1
 allocateEach[2]: x[1,2] + x[2,2] = 1
 allocateEach[3]: x[1,3] + x[2,3] = 1
 allocateEach[4]: x[1,4] + x[2,4] = 1
 allocateEach[5]: x[1,5] + x[2,5] = 1
 allocateEach[6]: x[1,6] + x[2,6] = 1
 allocateEach[7]: x[1,7] + x[2,7] = 1
 allocateEach[8]: x[1,8] + x[2,8] = 1
 allocateEach[9]: x[1,9] + x[2,9] = 1
 allocateEach[10]: x[1,10] + x[2,10] = 1
 allocateEach[11]: x[1,11] + x[2,11] = 1
 allocateEach[12]: x[1,12] + x[2,12] = 1
 allocateEach[13]: x[1,13] + x[2,13] = 1
 allocateEach[14]: x[1,14] + x[2,14] = 1
 allocateEach[15]: x[1,15] + x[2,15] = 1
 allocateAllCash: cashProportion[1] + cashProportion[2] = 1
 findWorstP[1,2]: z + 0.0373952931790985 cashProportion[1]
   - 0.0373952931790985 cashProportion[2] + 0.0674985041882728 x[1,1]
   + 0.00270492620662146 x[1,2] + 0.0503839250099721 x[1,3]
   + 0.0889634024730754 x[1,4] + 0.0783057439170323 x[1,5]
   + 0.1164614080574392 x[1,6] + 0.0739180295173514 x[1,7]
   + 0.0856726166733147 x[1,8] + 0.0185605305145592 x[1,9]
   + 0.0827183885121659 x[1,10] + 0.0116050059832469 x[1,11]
   + 0.1037096130833666 x[1,12] + 0.0394520343039489 x[1,13]
   + 0.0731077981651376 x[1,14] + 0.0695427802153969 x[1,15]
   - 0.0674985041882728 x[2,1] - 0.00270492620662146 x[2,2]
   - 0.0503839250099721 x[2,3] - 0.0889634024730754 x[2,4]
   - 0.0783057439170323 x[2,5] - 0.1164614080574392 x[2,6]
   - 0.0739180295173514 x[2,7] - 0.0856726166733147 x[2,8]
   - 0.0185605305145592 x[2,9] - 0.0827183885121659 x[2,10]
   - 0.0116050059832469 x[2,11] - 0.1037096130833666 x[2,12]
   - 0.0394520343039489 x[2,13] - 0.0731077981651376 x[2,14]
   - 0.0695427802153969 x[2,15] >= 0
 findWorstP[2,1]: z - 0.037722088797797 cashProportion[1]
   + 0.037722088797797 cashProportion[2] - 0.0824479120823851 x[1,1]
   - 0.1085013014120635 x[1,2] - 0.0986558362358385 x[1,3]
   - 0.0556023588879528 x[1,4] - 0.0436318827094519 x[1,5]
   - 0.1250487243646972 x[1,6] - 0.1165612543851929 x[1,7]
   - 0.0275119767631933 x[1,8] - 0.0838687774271021 x[1,9]
   - 7.4186774635667503e-04 x[1,10] - 0.0739478680732815 x[1,11]
   - 0.012397993184876 x[1,12] - 0.00433804021174666 x[1,13]
   - 0.0409787624640068 x[1,14] - 0.0880433552540583 x[1,15]
   + 0.0824479120823851 x[2,1] + 0.1085013014120635 x[2,2]
   + 0.0986558362358385 x[2,3] + 0.0556023588879528 x[2,4]
   + 0.0436318827094519 x[2,5] + 0.1250487243646972 x[2,6]
   + 0.1165612543851929 x[2,7] + 0.0275119767631933 x[2,8]
   + 0.0838687774271021 x[2,9] + 7.4186774635667503e-04 x[2,10]
   + 0.0739478680732815 x[2,11] + 0.012397993184876 x[2,12]
   + 0.00433804021174666 x[2,13] + 0.0409787624640068 x[2,14]
   + 0.0880433552540583 x[2,15] >= 0
Bounds
 z <= 1
 -infinity <= cashProportion[1] <= 1
 -infinity <= cashProportion[2] <= 1
Binaries
 x[1,1] x[1,2] x[1,3] x[1,4] x[1,5] x[1,6] x[1,7] x[1,8] x[1,9] x[1,10]
 x[1,11] x[1,12] x[1,13] x[1,14] x[1,15] x[2,1] x[2,2] x[2,3] x[2,4] x[2,5]
 x[2,6] x[2,7] x[2,8] x[2,9] x[2,10] x[2,11] x[2,12] x[2,13] x[2,14]
 x[2,15]
End
