data/mps_files/pEFS/35_5.mps
NAME foo
ROWS
 N  OBJ
 E  allocateEach[1]
 E  allocateEach[2]
 E  allocateEach[3]
 E  allocateEach[4]
 E  allocateEach[5]
 E  allocateEach[6]
 E  allocateEach[7]
 E  allocateEach[8]
 E  allocateEach[9]
 E  allocateEach[10]
 E  allocateEach[11]
 E  allocateEach[12]
 E  allocateEach[13]
 E  allocateEach[14]
 E  allocateEach[15]
 E  allocateAllCash
 G  findWorstP[1,2]
 G  findWorstP[2,1]
COLUMNS
    z         OBJ       1
    z         findWorstP[1,2]  1
    z         findWorstP[2,1]  1
    cashProportion[1]  allocateAllCash  1
    cashProportion[1]  findWorstP[1,2]  3.7395293179098524e-02
    cashProportion[1]  findWorstP[2,1]  -3.7722088797797038e-02
    cashProportion[2]  allocateAllCash  1
    cashProportion[2]  findWorstP[1,2]  -3.7395293179098524e-02
    cashProportion[2]  findWorstP[2,1]  3.7722088797797038e-02
    MARKER    'MARKER'                 'INTORG'
    x[1,1]    allocateEach[1]  1
    x[1,1]    findWorstP[1,2]  6.7498504188272843e-02
    x[1,1]    findWorstP[2,1]  -8.2447912082385055e-02
    x[1,2]    allocateEach[2]  1
    x[1,2]    findWorstP[1,2]  2.7049262066214603e-03
    x[1,2]    findWorstP[2,1]  -1.0850130141206354e-01
    x[1,3]    allocateEach[3]  1
    x[1,3]    findWorstP[1,2]  5.0383925009972082e-02
    x[1,3]    findWorstP[2,1]  -9.8655836235838512e-02
    x[1,4]    allocateEach[4]  1
    x[1,4]    findWorstP[1,2]  0.0889634024730754
    x[1,4]    findWorstP[2,1]  -5.5602358887952834e-02
    x[1,5]    allocateEach[5]  1
    x[1,5]    findWorstP[1,2]  7.8305743917032308e-02
    x[1,5]    findWorstP[2,1]  -4.3631882709451904e-02
    x[1,6]    allocateEach[6]  1
    x[1,6]    findWorstP[1,2]  1.1646140805743918e-01
    x[1,6]    findWorstP[2,1]  -1.2504872436469719e-01
    x[1,7]    allocateEach[7]  1
    x[1,7]    findWorstP[1,2]  7.3918029517351422e-02
    x[1,7]    findWorstP[2,1]  -1.1656125438519285e-01
    x[1,8]    allocateEach[8]  1
    x[1,8]    findWorstP[1,2]  8.5672616673314730e-02
    x[1,8]    findWorstP[2,1]  -2.7511976763193304e-02
    x[1,9]    allocateEach[9]  1
    x[1,9]    findWorstP[1,2]  1.8560530514559234e-02
    x[1,9]    findWorstP[2,1]  -8.3868777427102081e-02
    x[1,10]   allocateEach[10]  1
    x[1,10]   findWorstP[1,2]  8.2718388512165938e-02
    x[1,10]   findWorstP[2,1]  -0.000741867746356675
    x[1,11]   allocateEach[11]  1
    x[1,11]   findWorstP[1,2]  1.1605005983246909e-02
    x[1,11]   findWorstP[2,1]  -7.3947868073281450e-02
    x[1,12]   allocateEach[12]  1
    x[1,12]   findWorstP[1,2]  1.0370961308336657e-01
    x[1,12]   findWorstP[2,1]  -1.2397993184875960e-02
    x[1,13]   allocateEach[13]  1
    x[1,13]   findWorstP[1,2]  3.9452034303948946e-02
    x[1,13]   findWorstP[2,1]  -0.00433804021174666
    x[1,14]   allocateEach[14]  1
    x[1,14]   findWorstP[1,2]  7.3107798165137627e-02
    x[1,14]   findWorstP[2,1]  -4.0978762464006849e-02
    x[1,15]   allocateEach[15]  1
    x[1,15]   findWorstP[1,2]  0.0695427802153969
    x[1,15]   findWorstP[2,1]  -8.8043355254058292e-02
    x[2,1]    allocateEach[1]  1
    x[2,1]    findWorstP[1,2]  -6.7498504188272843e-02
    x[2,1]    findWorstP[2,1]  8.2447912082385055e-02
    x[2,2]    allocateEach[2]  1
    x[2,2]    findWorstP[1,2]  -2.7049262066214603e-03
    x[2,2]    findWorstP[2,1]  1.0850130141206354e-01
    x[2,3]    allocateEach[3]  1
    x[2,3]    findWorstP[1,2]  -5.0383925009972082e-02
    x[2,3]    findWorstP[2,1]  9.8655836235838512e-02
    x[2,4]    allocateEach[4]  1
    x[2,4]    findWorstP[1,2]  -0.0889634024730754
    x[2,4]    findWorstP[2,1]  5.5602358887952834e-02
    x[2,5]    allocateEach[5]  1
    x[2,5]    findWorstP[1,2]  -7.8305743917032308e-02
    x[2,5]    findWorstP[2,1]  4.3631882709451904e-02
    x[2,6]    allocateEach[6]  1
    x[2,6]    findWorstP[1,2]  -1.1646140805743918e-01
    x[2,6]    findWorstP[2,1]  1.2504872436469719e-01
    x[2,7]    allocateEach[7]  1
    x[2,7]    findWorstP[1,2]  -7.3918029517351422e-02
    x[2,7]    findWorstP[2,1]  1.1656125438519285e-01
    x[2,8]    allocateEach[8]  1
    x[2,8]    findWorstP[1,2]  -8.5672616673314730e-02
    x[2,8]    findWorstP[2,1]  2.7511976763193304e-02
    x[2,9]    allocateEach[9]  1
    x[2,9]    findWorstP[1,2]  -1.8560530514559234e-02
    x[2,9]    findWorstP[2,1]  8.3868777427102081e-02
    x[2,10]   allocateEach[10]  1
    x[2,10]   findWorstP[1,2]  -8.2718388512165938e-02
    x[2,10]   findWorstP[2,1]  0.000741867746356675
    x[2,11]   allocateEach[11]  1
    x[2,11]   findWorstP[1,2]  -1.1605005983246909e-02
    x[2,11]   findWorstP[2,1]  7.3947868073281450e-02
    x[2,12]   allocateEach[12]  1
    x[2,12]   findWorstP[1,2]  -1.0370961308336657e-01
    x[2,12]   findWorstP[2,1]  1.2397993184875960e-02
    x[2,13]   allocateEach[13]  1
    x[2,13]   findWorstP[1,2]  -3.9452034303948946e-02
    x[2,13]   findWorstP[2,1]  0.00433804021174666
    x[2,14]   allocateEach[14]  1
    x[2,14]   findWorstP[1,2]  -7.3107798165137627e-02
    x[2,14]   findWorstP[2,1]  4.0978762464006849e-02
    x[2,15]   allocateEach[15]  1
    x[2,15]   findWorstP[1,2]  -0.0695427802153969
    x[2,15]   findWorstP[2,1]  8.8043355254058292e-02
    MARKER    'MARKER'                 'INTEND'
RHS
    RHS1      allocateEach[1]  1
    RHS1      allocateEach[2]  1
    RHS1      allocateEach[3]  1
    RHS1      allocateEach[4]  1
    RHS1      allocateEach[5]  1
    RHS1      allocateEach[6]  1
    RHS1      allocateEach[7]  1
    RHS1      allocateEach[8]  1
    RHS1      allocateEach[9]  1
    RHS1      allocateEach[10]  1
    RHS1      allocateEach[11]  1
    RHS1      allocateEach[12]  1
    RHS1      allocateEach[13]  1
    RHS1      allocateEach[14]  1
    RHS1      allocateEach[15]  1
    RHS1      allocateAllCash  1
BOUNDS
 UP BND1      z         1
 MI BND1      cashProportion[1]
 UP BND1      cashProportion[1]  1
 MI BND1      cashProportion[2]
 UP BND1      cashProportion[2]  1
 BV BND1      x[1,1]  
 BV BND1      x[1,2]  
 BV BND1      x[1,3]  
 BV BND1      x[1,4]  
 BV BND1      x[1,5]  
 BV BND1      x[1,6]  
 BV BND1      x[1,7]  
 BV BND1      x[1,8]  
 BV BND1      x[1,9]  
 BV BND1      x[1,10] 
 BV BND1      x[1,11] 
 BV BND1      x[1,12] 
 BV BND1      x[1,13] 
 BV BND1      x[1,14] 
 BV BND1      x[1,15] 
 BV BND1      x[2,1]  
 BV BND1      x[2,2]  
 BV BND1      x[2,3]  
 BV BND1      x[2,4]  
 BV BND1      x[2,5]  
 BV BND1      x[2,6]  
 BV BND1      x[2,7]  
 BV BND1      x[2,8]  
 BV BND1      x[2,9]  
 BV BND1      x[2,10] 
 BV BND1      x[2,11] 
 BV BND1      x[2,12] 
 BV BND1      x[2,13] 
 BV BND1      x[2,14] 
 BV BND1      x[2,15] 
ENDATA
